CARROOOOOOOOOOCAAAAAAAAAAAAAA
Tried aggregator 1 time.
MIP Presolve eliminated 0 rows and 1 columns.
Reduced MIP has 932 rows, 50 columns, and 3728 nonzeros.
Reduced MIP has 50 binaries, 0 generals, 0 SOSs, and 0 indicators.
Probing time =    0.00 sec.
Tried aggregator 1 time.
Presolve time =    0.01 sec.
Found feasible solution after 0.01 sec.  Objective = 50.0000
Probing time =    0.00 sec.
MIP emphasis: balance optimality and feasibility.
MIP search method: dynamic search.
Parallel mode: none, using 1 thread.
Root relaxation solution time =    0.00 sec.

        Nodes                                         Cuts/
   Node  Left     Objective  IInf  Best Integer    Best Bound    ItCnt     Gap

*     0+    0                           50.0000                     62     --- 
      0     0       11.0000    22       50.0000       11.0000       62   78.00%
*     0+    0                           16.0000       11.0000       62   31.25%
*     0+    0                           13.0000       11.0000       62   15.38%
      0     0       12.0000    12       13.0000      Cuts: 17       95    7.69%
      0     0        cutoff             13.0000                     96    0.00%
Elapsed real time =   0.02 sec. (tree size =  0.00 MB, solutions = 3)

Zero-half cuts applied:  9
Gomory fractional cuts applied:  2

Root node processing (before b&c):
  Real time             =    0.01
Sequential b&c:
  Real time             =    0.00
                          -------
Total (root+branch&cut) =    0.01 sec.
Nodes: 0
OBJ: 13
1 1 0 1 1 0 1 0 1 1 1 1 0 1 1 0 1 1 1 1 1 1 0 1 0 0 1 1 1 1 1 1 1 1 1 1 1 0 0 1 1 0 0 1 1 1 1 0 1 1 
